50
23971

986 558
5 253
372 721
841 143
519 349
433 462
850 639
624 248
46 885
316 171
414 437
451 233
147 328
447 380
545 195
902 200
252 96
415 420
289 19
811 886
291 489
271 532
186 798
749 493
630 211
66 71
582 205
787 143
98 387
984 301
429 545
709 945
936 974
758 645
406 954
410 392
687 4
917 674
809 145
361 231
459 396
843 894
58 932
963 251
442 581
930 580
869 272
106 803
455 391
513 990
